(declare-fun bvlambda_7_ () (_ BitVec 2))
(declare-fun bvlambda_8_ ()Bool         )
(declare-fun bvlambda_10_ () (_ BitVec 3))
(declare-fun a48 () (Array (_ BitVec 1) (_ BitVec 12)))
(assert
(let (($e1 (_ bv0 1)))
(let (($e9 (_ bv0 9)))
(let (($e24 (_ bv0 8)))
(let (($e50         $e9             ))
(let (($e51         $e50              ))
(let (($e52         $e51             ))
(let (($e126 (concat $e24 $e1        )))
(let (($e128 (concat $e126 bvlambda_7_)))
(let (($e129 (concat $e128 $e1        )))
(let (($e130 (store a48 $e1 $e129)))
(let (($e291 (select $e130 bvlambda_8_)))
(let (($e293 (select $e130 true     )))
(let (($e295 (store a48   bvlambda_8_ $e293)))
(let (($e296 (select $e295 $e1)))
(let (($e300 (   extract        $e291)))
(let (($e301 ((_ extract 11 4) $e296)))
(let (($e302      (= $e24 $e301)         ))
             (bvand $e302 $e300)
                                                                                                                                          )))   )) ) )                                                                                                                                                                ))) )                                                                         )))     )              )       ))
